p tw 17 681 2 
1 4 
1 6 
1 8 
1 10 
1 12 
1 14 
1 16 
2 3 
2 4 
2 5 
2 7 
2 10 
2 11 
2 16 
3 7 
3 9 
3 10 
3 13 
3 14 
3 15 
3 16 
4 5 
4 6 
4 7 
4 9 
4 12 
4 13 
5 9 
5 11 
5 12 
5 15 
5 16 
5 17 
6 7 
6 8 
6 9 
6 11 
6 14 
6 15 
7 11 
7 13 
7 14 
7 17 
8 9 
8 10 
8 11 
8 13 
8 16 
8 17 
9 13 
9 15 
9 16 
10 11 
10 12 
10 13 
10 15 
11 15 
11 17 
12 13 
12 14 
12 15 
12 17 
13 17 
14 15 
14 16 
14 17 
16 17 
